conditionSynthesis/extended_example/max_abs_div_v4_cbmc.smt2
; SMT 2
(set-info :source "Generated by CBMC 5.6")
(set-option :produce-models true)
(set-logic QF_AUFBV)

; find_symbols
(declare-fun |goto_symex::&92;guard#1| () Bool)
; convert
(define-fun |B0| () Bool |goto_symex::&92;guard#1|)

; convert
(define-fun |B1| () Bool |goto_symex::&92;guard#1|)

; convert
(define-fun |B2| () Bool |goto_symex::&92;guard#1|)

; convert
(define-fun |B3| () Bool |goto_symex::&92;guard#1|)

; convert
(define-fun |B4| () Bool |goto_symex::&92;guard#1|)

; convert
(define-fun |B5| () Bool (not |goto_symex::&92;guard#1|))

; convert
(define-fun |B6| () Bool (not |goto_symex::&92;guard#1|))

; convert
(define-fun |B7| () Bool (not |goto_symex::&92;guard#1|))

; convert
(define-fun |B8| () Bool (not |goto_symex::&92;guard#1|))

; convert
(define-fun |B9| () Bool (not |goto_symex::&92;guard#1|))

; convert
(define-fun |B10| () Bool (not |goto_symex::&92;guard#1|))

; find_symbols
(declare-fun |goto_symex::&92;guard#2| () Bool)
; convert
(define-fun |B11| () Bool (and (not |goto_symex::&92;guard#1|) |goto_symex::&92;guard#2|))

; convert
(define-fun |B12| () Bool (and (not |goto_symex::&92;guard#1|) |goto_symex::&92;guard#2|))

; convert
(define-fun |B13| () Bool (and (not |goto_symex::&92;guard#1|) |goto_symex::&92;guard#2|))

; convert
(define-fun |B14| () Bool (and (not |goto_symex::&92;guard#1|) |goto_symex::&92;guard#2|))

; convert
(define-fun |B15| () Bool (and (not |goto_symex::&92;guard#1|) |goto_symex::&92;guard#2|))

; convert
(define-fun |B16| () Bool (and (not |goto_symex::&92;guard#1|) (not |goto_symex::&92;guard#2|)))

; find_symbols
(declare-fun |goto_symex::&92;guard#3| () Bool)
; convert
(define-fun |B17| () Bool |goto_symex::&92;guard#3|)

; convert
(define-fun |B18| () Bool |goto_symex::&92;guard#3|)

; convert
(define-fun |B19| () Bool |goto_symex::&92;guard#3|)

; convert
(define-fun |B20| () Bool |goto_symex::&92;guard#3|)

; find_symbols
(declare-fun |goto_symex::&92;guard#4| () Bool)
; convert
(define-fun |B21| () Bool (and |goto_symex::&92;guard#3| |goto_symex::&92;guard#4|))

; convert
(define-fun |B22| () Bool (and |goto_symex::&92;guard#3| |goto_symex::&92;guard#4|))

; convert
(define-fun |B23| () Bool (and |goto_symex::&92;guard#3| |goto_symex::&92;guard#4|))

; convert
(define-fun |B24| () Bool (and |goto_symex::&92;guard#3| |goto_symex::&92;guard#4|))

; set_to true (equal)
(define-fun |__CPROVER_dead_object#1| () (_ BitVec 64) (_ bv0 64))

; set_to true (equal)
(define-fun |__CPROVER_deallocated#1| () (_ BitVec 64) (_ bv0 64))

; set_to true (equal)
(define-fun |__CPROVER_malloc_is_new_array#1| () Bool false)

; set_to true (equal)
(define-fun |__CPROVER_malloc_object#1| () (_ BitVec 64) (_ bv0 64))

; set_to true (equal)
(define-fun |__CPROVER_malloc_size#1| () (_ BitVec 64) (_ bv0 64))

; set_to true (equal)
(define-fun |__CPROVER_memory_leak#1| () (_ BitVec 64) (_ bv0 64))

; set_to true (equal)
(define-fun |__CPROVER_next_thread_id#1| () (_ BitVec 64) (_ bv0 64))

; set_to true (equal)
(define-fun |__CPROVER_pipe_count#1| () (_ BitVec 32) (_ bv0 32))

; set_to true (equal)
(define-fun |__CPROVER_rounding_mode!0#1| () (_ BitVec 32) (_ bv0 32))

; set_to true (equal)
(define-fun |__CPROVER_thread_id!0#1| () (_ BitVec 64) (_ bv0 64))

; the following is a substitute for lambda i. x
(declare-fun array_of.0 () (Array (_ BitVec 64) (_ BitVec 1)))
; set_to true (equal)
(define-fun |__CPROVER_threads_exited#1| () (Array (_ BitVec 64) (_ BitVec 1)) array_of.0)

; find_symbols
(declare-fun |nondet_symex::nondet0| () (_ BitVec 32))
; set_to true (equal)
(define-fun |main::1::x!0@1#2| () (_ BitVec 32) |nondet_symex::nondet0|)

; find_symbols
(declare-fun |nondet_symex::nondet1| () (_ BitVec 32))
; set_to true (equal)
(define-fun |main::1::y!0@1#2| () (_ BitVec 32) |nondet_symex::nondet1|)

; find_symbols
(declare-fun |nondet_symex::nondet2| () (_ BitVec 32))
; set_to true (equal)
(define-fun |main::1::z!0@1#2| () (_ BitVec 32) |nondet_symex::nondet2|)

; set_to true
(assert (= |goto_symex::&92;guard#1| (bvsge |main::1::x!0@1#2| (_ bv9 32))))

; set_to true (equal)
(define-fun |main::1::z!0@1#3| () (_ BitVec 32) |main::1::x!0@1#2|)

; set_to true (equal)
(define-fun |main::1::z!0@1#4| () (_ BitVec 32) |main::1::z!0@1#2|)

; find_symbols
(declare-fun |nondet_symex::nondet3| () (_ BitVec 8))
; set_to true (equal)
(define-fun |main::$tmp::return_value_find_condition$1!0@1#2| () (_ BitVec 8) |nondet_symex::nondet3|)

; set_to true
(assert (= |goto_symex::&92;guard#2| (not (= |main::$tmp::return_value_find_condition$1!0@1#2| (_ bv0 8)))))

; set_to true (equal)
(define-fun |main::1::z!0@1#5| () (_ BitVec 32) (bvneg |main::1::x!0@1#2|))

; set_to true (equal)
(define-fun |main::1::z!0@1#6| () (_ BitVec 32) |main::1::z!0@1#4|)

; set_to true (equal)
(define-fun |main::1::z!0@1#7| () (_ BitVec 32) (_ bv9 32))

; set_to true (equal)
(define-fun |main::1::z!0@1#8| () (_ BitVec 32) (ite |goto_symex::&92;guard#2| |main::1::z!0@1#5| (_ bv9 32)))

; set_to true (equal)
(define-fun |main::1::z!0@1#9| () (_ BitVec 32) (ite |goto_symex::&92;guard#1| |main::1::z!0@1#3| |main::1::z!0@1#8|))

; find_symbols
(declare-fun |main::$tmp::return_value_find_condition$1!0@1#0| () (_ BitVec 8))
; find_symbols
(declare-fun |main::$tmp::return_value_find_condition$1!0@1#3| () (_ BitVec 8))
; set_to true (equal)
(define-fun |main::$tmp::return_value_find_condition$1!0@1#4| () (_ BitVec 8) (ite |goto_symex::&92;guard#1| |main::$tmp::return_value_find_condition$1!0@1#0| |main::$tmp::return_value_find_condition$1!0@1#3|))

; set_to true
(assert (= |goto_symex::&92;guard#3| (bvsge |main::1::x!0@1#2| (_ bv3 32))))

; set_to true (equal)
(define-fun |main::1::z!0@1#10| () (_ BitVec 32) (bvadd (_ bv1 32) |main::1::z!0@1#9|))

; set_to true (equal)
(define-fun |main::1::x!0@1#3| () (_ BitVec 32) (bvadd (_ bv4294967293 32) |main::1::x!0@1#2|))

; set_to true
(assert (= |goto_symex::&92;guard#4| (bvsge |main::1::x!0@1#3| (_ bv3 32))))

; set_to true (equal)
(define-fun |main::1::z!0@1#11| () (_ BitVec 32) (bvadd (_ bv1 32) |main::1::z!0@1#10|))

; set_to true (equal)
(define-fun |main::1::x!0@1#4| () (_ BitVec 32) (bvadd (_ bv4294967293 32) |main::1::x!0@1#3|))

; set_to true (equal)
(define-fun |main::1::z!0@1#12| () (_ BitVec 32) (ite |goto_symex::&92;guard#4| |main::1::z!0@1#11| |main::1::z!0@1#10|))

; set_to true (equal)
(define-fun |main::1::x!0@1#5| () (_ BitVec 32) (ite |goto_symex::&92;guard#4| |main::1::x!0@1#4| |main::1::x!0@1#3|))

; set_to true (equal)
(define-fun |main::1::z!0@1#13| () (_ BitVec 32) (ite |goto_symex::&92;guard#3| |main::1::z!0@1#12| |main::1::z!0@1#9|))

; set_to true (equal)
(define-fun |main::1::x!0@1#6| () (_ BitVec 32) (ite |goto_symex::&92;guard#3| |main::1::x!0@1#5| |main::1::x!0@1#2|))

; find_symbols
(declare-fun |main::1::x!0@1#1| () (_ BitVec 32))
; convert
(define-fun |B25| () Bool (= |main::1::x!0@1#1| |main::1::x!0@1#1|))

; find_symbols
(declare-fun |main::1::y!0@1#1| () (_ BitVec 32))
; convert
(define-fun |B26| () Bool (= |main::1::y!0@1#1| |main::1::y!0@1#1|))

; find_symbols
(declare-fun |main::1::z!0@1#1| () (_ BitVec 32))
; convert
(define-fun |B27| () Bool (= |main::1::z!0@1#1| |main::1::z!0@1#1|))

; find_symbols
(declare-fun |main::$tmp::return_value_find_condition$1!0@1#1| () (_ BitVec 8))
; convert
(define-fun |B28| () Bool (= |main::$tmp::return_value_find_condition$1!0@1#1| |main::$tmp::return_value_find_condition$1!0@1#1|))

; convert
(define-fun |B29| () Bool (not (and |goto_symex::&92;guard#3| |goto_symex::&92;guard#4|)))

; set_to false
(assert (not (and |goto_symex::&92;guard#3| |goto_symex::&92;guard#4|)))

; set_to false
(assert (not (and (bvsge |main::1::z!0@1#13| (_ bv9 32)) (bvsge |main::1::z!0@1#13| |main::1::x!0@1#6|) (bvsge |main::1::z!0@1#13| (bvneg |main::1::x!0@1#6|)))))

; convert
(define-fun |B30| () Bool (not (bvsge |main::1::x!0@1#2| (_ bv9 32))))

; convert
(define-fun |B31| () Bool (= |main::$tmp::return_value_find_condition$1!0@1#2| (_ bv0 8)))

; convert
(define-fun |B32| () Bool (not (bvsge |main::1::x!0@1#2| (_ bv3 32))))

; convert
(define-fun |B33| () Bool (not (bvsge |main::1::x!0@1#3| (_ bv3 32))))

(check-sat)

(get-value (|B0|))
(get-value (|B1|))
(get-value (|B10|))
(get-value (|B11|))
(get-value (|B12|))
(get-value (|B13|))
(get-value (|B14|))
(get-value (|B15|))
(get-value (|B16|))
(get-value (|B17|))
(get-value (|B18|))
(get-value (|B19|))
(get-value (|B2|))
(get-value (|B20|))
(get-value (|B21|))
(get-value (|B22|))
(get-value (|B23|))
(get-value (|B24|))
(get-value (|B25|))
(get-value (|B26|))
(get-value (|B27|))
(get-value (|B28|))
(get-value (|B29|))
(get-value (|B3|))
(get-value (|B30|))
(get-value (|B31|))
(get-value (|B32|))
(get-value (|B33|))
(get-value (|B4|))
(get-value (|B5|))
(get-value (|B6|))
(get-value (|B7|))
(get-value (|B8|))
(get-value (|B9|))
(get-value (|__CPROVER_dead_object#1|))
(get-value (|__CPROVER_deallocated#1|))
(get-value (|__CPROVER_malloc_is_new_array#1|))
(get-value (|__CPROVER_malloc_object#1|))
(get-value (|__CPROVER_malloc_size#1|))
(get-value (|__CPROVER_memory_leak#1|))
(get-value (|__CPROVER_next_thread_id#1|))
(get-value (|__CPROVER_pipe_count#1|))
(get-value (|__CPROVER_rounding_mode!0#1|))
(get-value (|__CPROVER_thread_id!0#1|))
(get-value (|__CPROVER_threads_exited#1|))
(get-value (|goto_symex::&92;guard#1|))
(get-value (|goto_symex::&92;guard#2|))
(get-value (|goto_symex::&92;guard#3|))
(get-value (|goto_symex::&92;guard#4|))
(get-value (|main::$tmp::return_value_find_condition$1!0@1#0|))
(get-value (|main::$tmp::return_value_find_condition$1!0@1#1|))
(get-value (|main::$tmp::return_value_find_condition$1!0@1#2|))
(get-value (|main::$tmp::return_value_find_condition$1!0@1#3|))
(get-value (|main::$tmp::return_value_find_condition$1!0@1#4|))
(get-value (|main::1::x!0@1#1|))
(get-value (|main::1::x!0@1#2|))
(get-value (|main::1::x!0@1#3|))
(get-value (|main::1::x!0@1#4|))
(get-value (|main::1::x!0@1#5|))
(get-value (|main::1::x!0@1#6|))
(get-value (|main::1::y!0@1#1|))
(get-value (|main::1::y!0@1#2|))
(get-value (|main::1::z!0@1#1|))
(get-value (|main::1::z!0@1#10|))
(get-value (|main::1::z!0@1#11|))
(get-value (|main::1::z!0@1#12|))
(get-value (|main::1::z!0@1#13|))
(get-value (|main::1::z!0@1#2|))
(get-value (|main::1::z!0@1#3|))
(get-value (|main::1::z!0@1#4|))
(get-value (|main::1::z!0@1#5|))
(get-value (|main::1::z!0@1#6|))
(get-value (|main::1::z!0@1#7|))
(get-value (|main::1::z!0@1#8|))
(get-value (|main::1::z!0@1#9|))
(get-value (|nondet_symex::nondet0|))
(get-value (|nondet_symex::nondet1|))
(get-value (|nondet_symex::nondet2|))
(get-value (|nondet_symex::nondet3|))

(exit)
; end of SMT2 file
